NAME: line_30_8
TYPE: TSP
COMMENT: line_30_8
DIMENSION: 30
EDGE_WEIGHT_TYPE: EUC_2D
NODE_COORD_SECTION
1 0.0 131.0
2 0.0 138.0
3 0.0 25.0
4 0.0 0.0
5 0.0 6.0
6 0.0 163.0
7 0.0 171.0
8 0.0 57.0
9 0.0 277.0
10 0.0 247.0
11 0.0 133.0
12 0.0 207.0
13 0.0 68.0
14 0.0 48.0
15 0.0 13.0
16 0.0 145.0
17 0.0 266.0
18 0.0 88.0
19 0.0 78.0
20 0.0 139.0
21 0.0 29.0
22 0.0 45.0
23 0.0 164.0
24 0.0 174.0
25 0.0 189.0
26 0.0 150.0
27 0.0 137.0
28 0.0 246.0
29 0.0 73.0
30 0.0 143.0
